NAME : LPS-n18-m20
COMMENT : (Lartu-Peter-Santi Plot, instance 6020 out of 39200. 18 customers.)
TYPE : CVRP
DIMENSION : 18
EDGE_WEIGHT_TYPE : EUC_2D
CAPACITY : 106
NODE_COORD_SECTION
 1 83 54
 2 26 84
 3 70 99
 4 42 54
 5 68 57
 6 65 70
 7 3 4
 8 63 37
 9 42 15
 10 40 91
 11 64 4
 12 35 81
 13 60 89
 14 74 61
 15 82 2
 16 95 64
 17 78 36
 18 30 88
DEMAND_SECTION
1 0
2 51
3 40
4 82
5 14
6 66
7 42
8 95
9 98
10 97
11 82
12 29
13 85
14 90
15 103
16 51
17 18
18 47
DEPOT_SECTION
 1
 -1
EOF
